\ SCIP STATISTICS
\   Problem name     : SetCover-100-150
\   Variables        : 150 (150 binary, 0 integer, 0 implicit integer, 0 continuous)
\   Constraints      : 100
Minimize
 Obj: +33 x0 +43 x1 +32 x2 +16 x3 +61 x4 +33 x5 +51 x6 +57 x7 +90 x8 +16 x9 +79 x10 +68 x11 +10 x12 +21 x13
      +18 x14 +60 x15 +9 x16 +45 x17 +49 x18 +96 x19 +66 x20 +93 x21 +17 x22 +97 x23 +84 x24 +27 x25 +75 x26
      +28 x27 +30 x28 +34 x29 +58 x30 +51 x31 +85 x32 +48 x33 +8 x34 +2 x35 +14 x36 +45 x37 +60 x38 +10 x39
      +41 x40 +35 x41 +54 x42 +78 x43 +60 x44 +84 x45 +74 x46 +16 x47 +39 x48 +40 x49 +10 x50 +22 x51
      +68 x52 +28 x53 +44 x54 +37 x55 +87 x56 +10 x57 +27 x58 +33 x59 +36 x60 +9 x61 +35 x62 +53 x63 +94 x64
      +41 x65 +86 x66 +21 x67 +19 x68 +57 x69 +41 x70 +46 x71 +35 x72 +90 x73 +77 x74 +76 x75 +44 x76
      +69 x77 +64 x78 +99 x79 +25 x80 +56 x81 +5 x82 +87 x83 +42 x84 +81 x85 +42 x86 +43 x87 +92 x88 +52 x89
      +19 x90 +49 x91 +74 x92 +84 x93 +4 x94 +93 x95 +36 x96 +5 x97 +14 x98 +54 x99 +36 x100 +41 x101
      +64 x102 +35 x103 +68 x104 +39 x105 +24 x106 +68 x107 +26 x108 +9 x109 +95 x110 +31 x111 +63 x112
      +25 x113 +93 x114 +3 x115 +28 x116 +1 x117 +95 x118 +95 x119 +89 x120 +83 x121 +78 x122 +20 x123
      +17 x124 +93 x125 +59 x126 +31 x127 +72 x128 +16 x129 +90 x130 +84 x131 +31 x132 +4 x133 +43 x134
      +70 x135 +20 x136 +10 x137 +72 x138 +96 x139 +95 x140 +19 x141 +72 x142 +87 x143 +100 x144 +33 x145
      +82 x146 +22 x147 +12 x148 +65 x149
Subject to
 c0: +1 x1 +1 x14 +1 x16 +1 x29 +1 x41 +1 x50 +1 x69 +1 x72 +1 x92 +1 x95 +1 x97 +1 x102 +1 x106 +1 x111
  +1 x123 +1 x128 +1 x144 +1 x148 >= +1
 c1: +1 x4 +1 x19 +1 x39 +1 x54 +1 x57 +1 x63 +1 x64 +1 x68 +1 x72 +1 x82 +1 x87 +1 x101 +1 x118 +1 x121
  +1 x125 +1 x126 +1 x142 +1 x143 >= +1
 c2: +1 x0 +1 x10 +1 x20 +1 x23 +1 x25 +1 x33 +1 x53 +1 x81 +1 x82 +1 x84 +1 x91 +1 x101 +1 x106 +1 x116
  +1 x119 +1 x131 +1 x138 >= +1
 c3: +1 x7 +1 x9 +1 x10 +1 x11 +1 x12 +1 x14 +1 x22 +1 x24 +1 x33 +1 x35 +1 x47 +1 x50 +1 x68 +1 x77 +1 x99
  +1 x114 +1 x123 +1 x143 +1 x144 +1 x145 +1 x149 >= +1
 c4: +1 x7 +1 x43 +1 x67 +1 x68 +1 x80 +1 x105 +1 x109 +1 x112 +1 x113 +1 x117 +1 x123 +1 x126 +1 x128
  +1 x132 +1 x136 +1 x148 >= +1
 c5: +1 x7 +1 x26 +1 x38 +1 x65 +1 x72 +1 x76 +1 x79 +1 x83 +1 x93 +1 x99 +1 x103 +1 x104 >= +1
 c6: +1 x9 +1 x23 +1 x31 +1 x63 +1 x79 +1 x86 +1 x98 +1 x107 +1 x110 +1 x112 +1 x121 +1 x145 >= +1
 c7: +1 x0 +1 x18 +1 x36 +1 x40 +1 x68 +1 x69 +1 x74 +1 x90 +1 x94 +1 x97 +1 x98 +1 x102 +1 x105 +1 x108
  +1 x115 +1 x116 +1 x130 >= +1
 c8: +1 x3 +1 x11 +1 x22 +1 x29 +1 x36 +1 x55 +1 x69 +1 x89 +1 x110 +1 x111 +1 x116 +1 x130 +1 x132 +1 x138
  +1 x141 >= +1
 c9: +1 x2 +1 x27 +1 x33 +1 x45 +1 x49 +1 x53 +1 x65 +1 x71 +1 x81 +1 x86 +1 x92 +1 x102 +1 x108 +1 x110
  +1 x119 +1 x127 +1 x139 >= +1
 c10: +1 x5 +1 x9 +1 x10 +1 x27 +1 x44 +1 x52 +1 x60 +1 x68 +1 x82 +1 x90 +1 x135 +1 x138 +1 x141 +1 x145
  >= +1
 c11: +1 x0 +1 x35 +1 x42 +1 x48 +1 x72 +1 x88 +1 x99 +1 x101 +1 x110 +1 x112 +1 x121 +1 x128 +1 x131
  +1 x141 >= +1
 c12: +1 x2 +1 x21 +1 x28 +1 x33 +1 x48 +1 x49 +1 x55 +1 x57 +1 x59 +1 x73 +1 x77 +1 x103 +1 x108 +1 x124
  +1 x129 +1 x135 >= +1
 c13: +1 x5 +1 x26 +1 x32 +1 x41 +1 x50 +1 x52 +1 x53 +1 x54 +1 x69 +1 x71 +1 x79 +1 x89 +1 x90 +1 x99
  +1 x100 +1 x103 +1 x110 >= +1
 c14: +1 x3 +1 x41 +1 x60 +1 x70 +1 x94 +1 x99 +1 x120 +1 x123 >= +1
 c15: +1 x9 +1 x16 +1 x27 +1 x29 +1 x37 +1 x46 +1 x68 +1 x112 +1 x113 +1 x137 >= +1
 c16: +1 x7 +1 x12 +1 x20 +1 x36 +1 x38 +1 x50 +1 x56 +1 x60 +1 x64 +1 x65 +1 x73 +1 x80 +1 x85 +1 x105
  +1 x122 +1 x136 +1 x138 >= +1
 c17: +1 x9 +1 x12 +1 x35 +1 x59 +1 x67 +1 x75 +1 x76 +1 x79 +1 x80 +1 x101 +1 x103 +1 x115 +1 x128 +1 x136
  +1 x138 +1 x141 >= +1
 c18: +1 x4 +1 x30 +1 x42 +1 x47 +1 x56 +1 x59 +1 x65 +1 x66 +1 x72 +1 x88 +1 x90 +1 x98 +1 x100 +1 x123
  +1 x145 +1 x149 >= +1
 c19: +1 x4 +1 x11 +1 x22 +1 x56 +1 x60 +1 x69 +1 x83 +1 x90 +1 x91 +1 x137 >= +1
 c20: +1 x8 +1 x31 +1 x61 +1 x76 +1 x77 +1 x91 +1 x105 +1 x107 +1 x147 >= +1
 c21: +1 x0 +1 x12 +1 x16 +1 x22 +1 x27 +1 x29 +1 x43 +1 x57 +1 x69 +1 x75 +1 x79 +1 x87 +1 x96 +1 x104
  +1 x115 +1 x129 >= +1
 c22: +1 x4 +1 x14 +1 x21 +1 x23 +1 x34 +1 x35 +1 x66 +1 x70 +1 x75 +1 x82 +1 x87 +1 x115 +1 x117 +1 x128
  +1 x134 +1 x140 +1 x141 >= +1
 c23: +1 x2 +1 x41 +1 x54 +1 x63 +1 x66 +1 x67 +1 x71 +1 x73 +1 x104 +1 x112 +1 x113 +1 x121 +1 x125 +1 x130
  +1 x131 +1 x136 +1 x138 +1 x148 >= +1
 c24: +1 x4 +1 x11 +1 x16 +1 x28 +1 x29 +1 x43 +1 x46 +1 x69 +1 x82 +1 x94 +1 x97 +1 x100 +1 x120 +1 x125
  +1 x137 +1 x138 +1 x139 >= +1
 c25: +1 x4 +1 x13 +1 x17 +1 x27 +1 x28 +1 x33 +1 x35 +1 x38 +1 x56 +1 x60 +1 x70 +1 x81 +1 x121 +1 x128
  +1 x138 +1 x146 >= +1
 c26: +1 x0 +1 x25 +1 x33 +1 x47 +1 x62 +1 x66 +1 x76 +1 x79 +1 x87 +1 x89 +1 x102 +1 x112 +1 x127 +1 x131
  +1 x139 +1 x141 +1 x143 >= +1
 c27: +1 x7 +1 x13 +1 x15 +1 x29 +1 x34 +1 x41 +1 x43 +1 x49 +1 x88 +1 x91 +1 x125 +1 x128 +1 x133 +1 x136
  +1 x138 +1 x146 >= +1
 c28: +1 x7 +1 x26 +1 x58 +1 x67 +1 x75 +1 x80 +1 x103 +1 x107 +1 x119 +1 x122 +1 x136 +1 x141 +1 x143
  >= +1
 c29: +1 x8 +1 x10 +1 x23 +1 x37 +1 x70 +1 x74 +1 x75 +1 x76 +1 x81 +1 x85 +1 x115 +1 x126 +1 x131 +1 x149
  >= +1
 c30: +1 x1 +1 x42 +1 x44 +1 x59 +1 x70 +1 x82 +1 x83 +1 x93 +1 x121 +1 x122 +1 x125 >= +1
 c31: +1 x0 +1 x20 +1 x37 +1 x60 +1 x67 +1 x94 +1 x97 +1 x106 +1 x112 +1 x114 +1 x122 +1 x144 >= +1
 c32: +1 x5 +1 x14 +1 x19 +1 x20 +1 x26 +1 x35 +1 x39 +1 x75 +1 x81 +1 x105 +1 x106 +1 x123 +1 x125 +1 x126
  +1 x131 +1 x137 +1 x138 >= +1
 c33: +1 x0 +1 x32 +1 x46 +1 x55 +1 x59 +1 x69 +1 x72 +1 x76 +1 x78 +1 x111 +1 x114 +1 x116 +1 x133 +1 x134
  +1 x142 >= +1
 c34: +1 x1 +1 x34 +1 x35 +1 x58 +1 x60 +1 x65 +1 x71 +1 x92 +1 x93 +1 x102 +1 x104 +1 x105 +1 x115 +1 x127
  >= +1
 c35: +1 x1 +1 x73 +1 x77 +1 x102 +1 x109 +1 x117 +1 x121 +1 x132 +1 x135 +1 x137 +1 x146 >= +1
 c36: +1 x8 +1 x15 +1 x19 +1 x32 +1 x34 +1 x37 +1 x55 +1 x62 +1 x64 +1 x87 +1 x95 +1 x100 +1 x121 +1 x132
  +1 x139 >= +1
 c37: +1 x6 +1 x29 +1 x55 +1 x58 +1 x60 +1 x71 +1 x84 +1 x112 +1 x117 +1 x118 +1 x121 +1 x133 +1 x136
  +1 x137 +1 x146 >= +1
 c38: +1 x9 +1 x10 +1 x15 +1 x35 +1 x36 +1 x37 +1 x44 +1 x83 +1 x98 +1 x102 +1 x107 +1 x113 +1 x119 +1 x125
  +1 x138 +1 x140 >= +1
 c39: +1 x1 +1 x18 +1 x22 +1 x23 +1 x28 +1 x34 +1 x58 +1 x65 +1 x71 +1 x76 +1 x90 +1 x93 +1 x101 +1 x107
  +1 x116 +1 x118 +1 x125 +1 x129 +1 x131 +1 x136 +1 x139 +1 x145 >= +1
 c40: +1 x7 +1 x18 +1 x27 +1 x30 +1 x54 +1 x73 +1 x76 +1 x97 +1 x100 +1 x109 +1 x114 +1 x122 +1 x135 +1 x145
  +1 x149 >= +1
 c41: +1 x5 +1 x14 +1 x22 +1 x28 +1 x43 +1 x71 +1 x81 +1 x93 +1 x102 +1 x104 +1 x109 +1 x120 +1 x129 +1 x148
  >= +1
 c42: +1 x2 +1 x11 +1 x13 +1 x21 +1 x38 +1 x46 +1 x50 +1 x60 +1 x63 +1 x74 +1 x88 +1 x96 +1 x109 +1 x137
  +1 x141 +1 x147 >= +1
 c43: +1 x4 +1 x28 +1 x37 +1 x43 +1 x78 +1 x94 +1 x102 +1 x106 +1 x113 +1 x143 +1 x144 >= +1
 c44: +1 x6 +1 x12 +1 x17 +1 x27 +1 x36 +1 x70 +1 x85 +1 x86 +1 x107 +1 x112 +1 x127 +1 x136 +1 x144 >= +1
 c45: +1 x6 +1 x26 +1 x40 +1 x44 +1 x55 +1 x65 +1 x81 +1 x85 +1 x105 +1 x112 >= +1
 c46: +1 x8 +1 x24 +1 x25 +1 x30 +1 x44 +1 x47 +1 x51 +1 x67 +1 x68 +1 x72 +1 x79 +1 x94 +1 x111 +1 x112
  +1 x116 +1 x117 +1 x120 +1 x128 +1 x132 +1 x135 +1 x138 +1 x141 >= +1
 c47: +1 x2 +1 x19 +1 x22 +1 x27 +1 x51 +1 x58 +1 x75 +1 x107 +1 x119 +1 x124 +1 x128 +1 x129 +1 x131
  +1 x139 +1 x142 >= +1
 c48: +1 x9 +1 x11 +1 x12 +1 x15 +1 x17 +1 x19 +1 x25 +1 x32 +1 x38 +1 x40 +1 x50 +1 x52 +1 x56 +1 x57
  +1 x82 +1 x89 +1 x108 +1 x111 +1 x131 +1 x141 +1 x149 >= +1
 c49: +1 x6 +1 x14 +1 x23 +1 x25 +1 x38 +1 x40 +1 x43 +1 x77 +1 x89 +1 x93 +1 x99 +1 x104 +1 x107 +1 x109
  +1 x118 +1 x140 >= +1
 c50: +1 x7 +1 x13 +1 x15 +1 x19 +1 x27 +1 x31 +1 x57 +1 x67 +1 x82 +1 x90 +1 x98 +1 x104 +1 x105 +1 x107
  +1 x113 +1 x116 +1 x117 +1 x122 +1 x126 +1 x142 >= +1
 c51: +1 x7 +1 x26 +1 x30 +1 x56 +1 x66 +1 x69 +1 x74 +1 x77 +1 x81 +1 x84 +1 x86 +1 x97 +1 x104 +1 x107
  +1 x128 >= +1
 c52: +1 x9 +1 x13 +1 x19 +1 x20 +1 x29 +1 x38 +1 x41 +1 x45 +1 x53 +1 x55 +1 x61 +1 x66 +1 x70 +1 x103
  +1 x104 +1 x119 +1 x128 +1 x134 +1 x136 >= +1
 c53: +1 x1 +1 x12 +1 x13 +1 x16 +1 x27 +1 x65 +1 x86 +1 x88 +1 x90 +1 x96 +1 x98 +1 x113 +1 x116 +1 x129
  +1 x146 >= +1
 c54: +1 x3 +1 x10 +1 x17 +1 x56 +1 x85 +1 x133 +1 x146 >= +1
 c55: +1 x6 +1 x19 +1 x21 +1 x25 +1 x27 +1 x34 +1 x50 +1 x58 +1 x61 +1 x82 +1 x83 +1 x90 +1 x92 +1 x93
  +1 x114 +1 x118 +1 x138 +1 x144 +1 x147 >= +1
 c56: +1 x4 +1 x11 +1 x19 +1 x25 +1 x27 +1 x29 +1 x47 +1 x54 +1 x57 +1 x82 +1 x92 +1 x93 +1 x113 +1 x126
  +1 x137 +1 x148 >= +1
 c57: +1 x4 +1 x10 +1 x33 +1 x55 +1 x60 +1 x67 +1 x78 +1 x99 +1 x124 +1 x130 >= +1
 c58: +1 x3 +1 x37 +1 x39 +1 x45 +1 x46 +1 x53 +1 x58 +1 x63 +1 x69 +1 x84 +1 x91 +1 x104 +1 x139 >= +1
 c59: +1 x0 +1 x10 +1 x22 +1 x27 +1 x46 +1 x66 +1 x77 +1 x90 +1 x94 +1 x130 >= +1
 c60: +1 x7 +1 x10 +1 x16 +1 x18 +1 x32 +1 x40 +1 x42 +1 x66 +1 x71 +1 x81 +1 x94 +1 x95 +1 x135 +1 x137
  >= +1
 c61: +1 x0 +1 x11 +1 x13 +1 x25 +1 x32 +1 x53 +1 x61 +1 x70 +1 x93 +1 x111 +1 x137 +1 x141 +1 x142 >= +1
 c62: +1 x9 +1 x40 +1 x71 +1 x85 +1 x138 +1 x149 >= +1
 c63: +1 x1 +1 x18 +1 x19 +1 x32 +1 x44 +1 x59 +1 x62 +1 x65 +1 x69 +1 x88 +1 x96 +1 x97 +1 x121 +1 x128
  +1 x134 +1 x146 +1 x149 >= +1
 c64: +1 x7 +1 x11 +1 x14 +1 x23 +1 x27 +1 x37 +1 x93 +1 x102 +1 x124 +1 x131 +1 x146 >= +1
 c65: +1 x9 +1 x20 +1 x24 +1 x28 +1 x32 +1 x35 +1 x37 +1 x41 +1 x48 +1 x51 +1 x53 +1 x58 +1 x59 +1 x60
  +1 x82 +1 x93 +1 x94 +1 x107 +1 x111 +1 x117 +1 x118 +1 x120 +1 x127 +1 x135 +1 x137 +1 x148 >= +1
 c66: +1 x2 +1 x16 +1 x19 +1 x34 +1 x39 +1 x40 +1 x68 +1 x73 +1 x92 +1 x97 +1 x102 +1 x105 +1 x113 +1 x117
  +1 x121 >= +1
 c67: +1 x9 +1 x10 +1 x27 +1 x29 +1 x31 +1 x39 +1 x48 +1 x51 +1 x55 +1 x56 +1 x63 +1 x71 +1 x96 +1 x98
  +1 x100 +1 x103 +1 x108 +1 x123 +1 x137 +1 x141 >= +1
 c68: +1 x9 +1 x10 +1 x13 +1 x23 +1 x29 +1 x42 +1 x48 +1 x51 +1 x82 +1 x87 +1 x92 +1 x100 +1 x135 +1 x149
  >= +1
 c69: +1 x4 +1 x26 +1 x31 +1 x39 +1 x51 +1 x56 +1 x58 +1 x66 +1 x75 +1 x82 +1 x90 +1 x109 +1 x125 +1 x135
  +1 x144 +1 x147 >= +1
 c70: +1 x4 +1 x14 +1 x25 +1 x29 +1 x56 +1 x61 +1 x80 +1 x85 +1 x88 +1 x125 +1 x127 +1 x132 +1 x134 +1 x136
  +1 x140 +1 x145 +1 x147 +1 x148 >= +1
 c71: +1 x4 +1 x16 +1 x20 +1 x27 +1 x52 +1 x59 +1 x73 +1 x79 +1 x96 +1 x108 +1 x118 +1 x147 >= +1
 c72: +1 x1 +1 x25 +1 x27 +1 x36 +1 x40 +1 x41 +1 x47 +1 x50 +1 x56 +1 x65 +1 x68 +1 x74 +1 x82 +1 x98
  +1 x103 +1 x109 +1 x118 +1 x122 +1 x126 +1 x127 +1 x130 +1 x146 >= +1
 c73: +1 x9 +1 x10 +1 x14 +1 x18 +1 x21 +1 x29 +1 x32 +1 x36 +1 x43 +1 x47 +1 x67 +1 x76 +1 x80 +1 x84
  +1 x86 +1 x91 +1 x93 +1 x95 +1 x115 +1 x135 +1 x144 +1 x149 >= +1
 c74: +1 x8 +1 x24 +1 x42 +1 x48 +1 x49 +1 x66 +1 x69 +1 x70 +1 x95 +1 x101 +1 x103 +1 x104 +1 x106 +1 x126
  +1 x127 +1 x138 >= +1
 c75: +1 x9 +1 x10 +1 x19 +1 x21 +1 x27 +1 x40 +1 x43 +1 x60 +1 x70 +1 x92 +1 x113 +1 x125 +1 x126 +1 x130
  +1 x139 >= +1
 c76: +1 x4 +1 x31 +1 x33 +1 x55 +1 x62 +1 x63 +1 x70 +1 x83 +1 x114 +1 x117 +1 x120 +1 x126 +1 x134 +1 x140
  +1 x144 >= +1
 c77: +1 x6 +1 x12 +1 x15 +1 x18 +1 x37 +1 x38 +1 x40 +1 x48 +1 x84 +1 x88 +1 x101 +1 x103 +1 x116 >= +1
 c78: +1 x3 +1 x11 +1 x12 +1 x34 +1 x45 +1 x51 +1 x72 +1 x74 +1 x86 +1 x93 +1 x94 +1 x99 +1 x110 +1 x113
  +1 x122 +1 x124 +1 x130 +1 x133 +1 x136 >= +1
 c79: +1 x2 +1 x28 +1 x40 +1 x55 +1 x92 +1 x93 +1 x137 +1 x148 >= +1
 c80: +1 x1 +1 x18 +1 x28 +1 x33 +1 x44 +1 x49 +1 x58 +1 x79 +1 x83 +1 x93 +1 x114 +1 x116 +1 x118 +1 x119
  +1 x127 >= +1
 c81: +1 x1 +1 x16 +1 x48 +1 x87 +1 x94 +1 x97 +1 x101 +1 x103 +1 x115 +1 x134 >= +1
 c82: +1 x3 +1 x22 +1 x30 +1 x32 +1 x41 +1 x77 +1 x90 +1 x93 +1 x108 +1 x118 +1 x119 >= +1
 c83: +1 x5 +1 x10 +1 x23 +1 x36 +1 x47 +1 x51 +1 x56 +1 x68 +1 x73 +1 x83 +1 x92 +1 x96 +1 x98 +1 x107
  +1 x115 +1 x144 >= +1
 c84: +1 x2 +1 x15 +1 x22 +1 x28 +1 x37 +1 x38 +1 x47 +1 x59 +1 x80 +1 x91 +1 x103 +1 x106 +1 x108 +1 x114
  +1 x119 >= +1
 c85: +1 x5 +1 x13 +1 x24 +1 x31 +1 x39 +1 x42 +1 x47 +1 x86 +1 x105 +1 x107 +1 x146 >= +1
 c86: +1 x3 +1 x22 +1 x23 +1 x30 +1 x34 +1 x37 +1 x42 +1 x52 +1 x77 +1 x79 +1 x105 +1 x110 >= +1
 c87: +1 x3 +1 x10 +1 x17 +1 x20 +1 x31 +1 x34 +1 x37 +1 x50 +1 x85 +1 x89 +1 x120 +1 x133 +1 x142 +1 x145
  >= +1
 c88: +1 x4 +1 x11 +1 x15 +1 x30 +1 x32 +1 x68 +1 x71 +1 x81 +1 x92 +1 x101 +1 x113 +1 x115 +1 x120 +1 x129
  +1 x141 >= +1
 c89: +1 x8 +1 x15 +1 x24 +1 x27 +1 x46 +1 x49 +1 x53 +1 x63 +1 x64 +1 x68 +1 x89 +1 x99 +1 x109 +1 x119
  +1 x132 +1 x141 >= +1
 c90: +1 x1 +1 x20 +1 x26 +1 x39 +1 x48 +1 x49 +1 x51 +1 x66 +1 x76 +1 x79 +1 x84 +1 x97 +1 x102 +1 x106
  +1 x108 +1 x121 +1 x137 +1 x142 >= +1
 c91: +1 x6 +1 x25 +1 x46 +1 x49 +1 x61 +1 x62 +1 x63 +1 x75 +1 x82 +1 x111 +1 x113 +1 x130 >= +1
 c92: +1 x6 +1 x35 +1 x44 +1 x45 +1 x48 +1 x50 +1 x56 +1 x62 +1 x78 +1 x91 +1 x97 +1 x116 +1 x122 >= +1
 c93: +1 x5 +1 x15 +1 x25 +1 x28 +1 x38 +1 x39 +1 x47 +1 x49 +1 x53 +1 x56 +1 x62 +1 x63 +1 x64 +1 x67
  +1 x72 +1 x77 +1 x78 +1 x86 +1 x106 +1 x117 +1 x129 +1 x131 +1 x144 >= +1
 c94: +1 x8 +1 x24 +1 x32 +1 x34 +1 x51 +1 x56 +1 x62 +1 x72 +1 x96 +1 x105 +1 x146 >= +1
 c95: +1 x6 +1 x22 +1 x25 +1 x32 +1 x44 +1 x59 +1 x63 +1 x82 +1 x88 +1 x105 +1 x108 +1 x111 +1 x116 +1 x142
  >= +1
 c96: +1 x2 +1 x13 +1 x37 +1 x49 +1 x66 +1 x82 +1 x85 +1 x95 +1 x96 +1 x102 +1 x106 +1 x141 +1 x145 >= +1
 c97: +1 x8 +1 x20 +1 x36 +1 x38 +1 x41 +1 x74 +1 x95 +1 x99 +1 x104 +1 x105 +1 x109 +1 x135 +1 x144 >= +1
 c98: +1 x8 +1 x14 +1 x15 +1 x16 +1 x28 +1 x43 +1 x45 +1 x60 +1 x64 +1 x68 +1 x97 +1 x111 +1 x114 +1 x128
  +1 x136 +1 x148 >= +1
 c99: +1 x8 +1 x10 +1 x11 +1 x23 +1 x29 +1 x39 +1 x42 +1 x49 +1 x55 +1 x62 +1 x76 +1 x85 +1 x90 +1 x92
  +1 x112 +1 x113 +1 x114 +1 x123 +1 x133 +1 x143 +1 x149 >= +1
Bounds
 0 <= x0 <= 1
 0 <= x1 <= 1
 0 <= x2 <= 1
 0 <= x3 <= 1
 0 <= x4 <= 1
 0 <= x5 <= 1
 0 <= x6 <= 1
 0 <= x7 <= 1
 0 <= x8 <= 1
 0 <= x9 <= 1
 0 <= x10 <= 1
 0 <= x11 <= 1
 0 <= x12 <= 1
 0 <= x13 <= 1
 0 <= x14 <= 1
 0 <= x15 <= 1
 0 <= x16 <= 1
 0 <= x17 <= 1
 0 <= x18 <= 1
 0 <= x19 <= 1
 0 <= x20 <= 1
 0 <= x21 <= 1
 0 <= x22 <= 1
 0 <= x23 <= 1
 0 <= x24 <= 1
 0 <= x25 <= 1
 0 <= x26 <= 1
 0 <= x27 <= 1
 0 <= x28 <= 1
 0 <= x29 <= 1
 0 <= x30 <= 1
 0 <= x31 <= 1
 0 <= x32 <= 1
 0 <= x33 <= 1
 0 <= x34 <= 1
 0 <= x35 <= 1
 0 <= x36 <= 1
 0 <= x37 <= 1
 0 <= x38 <= 1
 0 <= x39 <= 1
 0 <= x40 <= 1
 0 <= x41 <= 1
 0 <= x42 <= 1
 0 <= x43 <= 1
 0 <= x44 <= 1
 0 <= x45 <= 1
 0 <= x46 <= 1
 0 <= x47 <= 1
 0 <= x48 <= 1
 0 <= x49 <= 1
 0 <= x50 <= 1
 0 <= x51 <= 1
 0 <= x52 <= 1
 0 <= x53 <= 1
 0 <= x54 <= 1
 0 <= x55 <= 1
 0 <= x56 <= 1
 0 <= x57 <= 1
 0 <= x58 <= 1
 0 <= x59 <= 1
 0 <= x60 <= 1
 0 <= x61 <= 1
 0 <= x62 <= 1
 0 <= x63 <= 1
 0 <= x64 <= 1
 0 <= x65 <= 1
 0 <= x66 <= 1
 0 <= x67 <= 1
 0 <= x68 <= 1
 0 <= x69 <= 1
 0 <= x70 <= 1
 0 <= x71 <= 1
 0 <= x72 <= 1
 0 <= x73 <= 1
 0 <= x74 <= 1
 0 <= x75 <= 1
 0 <= x76 <= 1
 0 <= x77 <= 1
 0 <= x78 <= 1
 0 <= x79 <= 1
 0 <= x80 <= 1
 0 <= x81 <= 1
 0 <= x82 <= 1
 0 <= x83 <= 1
 0 <= x84 <= 1
 0 <= x85 <= 1
 0 <= x86 <= 1
 0 <= x87 <= 1
 0 <= x88 <= 1
 0 <= x89 <= 1
 0 <= x90 <= 1
 0 <= x91 <= 1
 0 <= x92 <= 1
 0 <= x93 <= 1
 0 <= x94 <= 1
 0 <= x95 <= 1
 0 <= x96 <= 1
 0 <= x97 <= 1
 0 <= x98 <= 1
 0 <= x99 <= 1
 0 <= x100 <= 1
 0 <= x101 <= 1
 0 <= x102 <= 1
 0 <= x103 <= 1
 0 <= x104 <= 1
 0 <= x105 <= 1
 0 <= x106 <= 1
 0 <= x107 <= 1
 0 <= x108 <= 1
 0 <= x109 <= 1
 0 <= x110 <= 1
 0 <= x111 <= 1
 0 <= x112 <= 1
 0 <= x113 <= 1
 0 <= x114 <= 1
 0 <= x115 <= 1
 0 <= x116 <= 1
 0 <= x117 <= 1
 0 <= x118 <= 1
 0 <= x119 <= 1
 0 <= x120 <= 1
 0 <= x121 <= 1
 0 <= x122 <= 1
 0 <= x123 <= 1
 0 <= x124 <= 1
 0 <= x125 <= 1
 0 <= x126 <= 1
 0 <= x127 <= 1
 0 <= x128 <= 1
 0 <= x129 <= 1
 0 <= x130 <= 1
 0 <= x131 <= 1
 0 <= x132 <= 1
 0 <= x133 <= 1
 0 <= x134 <= 1
 0 <= x135 <= 1
 0 <= x136 <= 1
 0 <= x137 <= 1
 0 <= x138 <= 1
 0 <= x139 <= 1
 0 <= x140 <= 1
 0 <= x141 <= 1
 0 <= x142 <= 1
 0 <= x143 <= 1
 0 <= x144 <= 1
 0 <= x145 <= 1
 0 <= x146 <= 1
 0 <= x147 <= 1
 0 <= x148 <= 1
 0 <= x149 <= 1
Binaries
 x0 x1 x2 x3 x4 x5 x6 x7 x8 x9 x10 x11 x12 x13 x14 x15 x16 x17 x18 x19 x20 x21 x22 x23 x24 x25 x26 x27
 x28 x29 x30 x31 x32 x33 x34 x35 x36 x37 x38 x39 x40 x41 x42 x43 x44 x45 x46 x47 x48 x49 x50 x51 x52 x53
 x54 x55 x56 x57 x58 x59 x60 x61 x62 x63 x64 x65 x66 x67 x68 x69 x70 x71 x72 x73 x74 x75 x76 x77 x78 x79
 x80 x81 x82 x83 x84 x85 x86 x87 x88 x89 x90 x91 x92 x93 x94 x95 x96 x97 x98 x99 x100 x101 x102 x103 x104
 x105 x106 x107 x108 x109 x110 x111 x112 x113 x114 x115 x116 x117 x118 x119 x120 x121 x122 x123 x124 x125
 x126 x127 x128 x129 x130 x131 x132 x133 x134 x135 x136 x137 x138 x139 x140 x141 x142 x143 x144 x145 x146
 x147 x148 x149
End
